
  22   10
  10   10   10   10   10   10   10   10   10   10

   0   0   0   0   0   0   0   0   0   0   0   4 2 3 15 21 
   1  10  10  10  10  10  10  10  10  10  10   2 20 4 
  10  10  10  10  10  10  10  10  10  10  10   2 20 6 
   9  10  10  10  10  10  10  10  10  10  10   1 5 
   3  10  10  10  10  10  10  10  10  10  10   1 6 
   6  10  10  10  10  10  10  10  10  10  10   1 7 
   8  10  10  10  10  10  10  10  10  10  10   1 8 
   5  10  10  10  10  10  10  10  10  10  10   1 9 
  10  10  10  10  10  10  10  10  10  10  10   2 17 10 
   4  10  10  10  10  10  10  10  10  10  10   1 11 
   8  10  10  10  10  10  10  10  10  10  10   2 19 12 
   5  10  10  10  10  10  10  10  10  10  10   1 13 
   7  10  10  10  10  10  10  10  10  10  10   1 14 
   8  10  10  10  10  10  10  10  10  10  10   1 16 
   8  10  10  10  10  10  10  10  10  10  10   1 16 
   2  10  10  10  10  10  10  10  10  10  10   1 18 
   6  10  10  10  10  10  10  10  10  10  10   1 18 
   3  10  10  10  10  10  10  10  10  10  10   1 22
   7  10  10  10  10  10  10  10  10  10  10   1 22
   5  10  10  10  10  10  10  10  10  10  10   1 22
   5  10  10  10  10  10  10  10  10  10  10   1 22
   0   0   0   0   0   0   0   0   0   0   0   0 
